set VV := 0 1 2 3 4 5 6 7 8 9 10 11 12 13 14 15 16 17 18 ;
set VS := 0 1 2 3 4 5 6 7 8 9 10 11 12 13 14 15 16 17 18 19 20 21 22 23 24 25 26 27 28 29 30 31 32 33 34 35 36 37 38 39 40 41 42 ;
param cv := 
0 22
1 18
2 19
3 19
4 17
5 22
6 21
7 22
8 16
9 17
10 25
11 13
12 21
13 25
14 25
15 22
16 14
17 14
18 11
;
param cs := 
0 30
1 29
2 32
3 32
4 34
5 25
6 32
7 30
8 29
9 25
10 25
11 22
12 35
13 31
14 21
15 37
16 35
17 23
18 24
19 23
20 36
21 40
22 29
23 39
24 36
25 25
26 34
27 33
28 37
29 39
30 39
31 36
32 37
33 34
34 20
35 33
36 22
37 28
38 35
39 22
40 32
41 29
42 37
;
param bv:	 0 1 2 3 4 5 6 7 8 9 10 11 12 13 14 15 16 17 18 := 
		0 0 0 0 0 0 0 0 0 0 0 0 20 11 0 0 0 0 0 0 
		1 0 0 0 0 0 0 0 0 0 0 0 0 0 0 0 0 23 0 0 
		2 0 0 0 0 0 0 0 0 0 0 0 18 25 0 11 14 0 25 23 
		3 0 0 0 0 23 17 0 0 0 0 0 0 0 0 0 0 0 0 0 
		4 0 0 0 0 0 0 0 0 0 0 18 0 0 0 0 0 0 22 0 
		5 0 0 0 0 0 0 0 25 0 0 0 0 0 0 0 0 0 0 0 
		6 0 0 0 0 0 0 0 0 0 0 0 0 0 0 12 0 0 0 0 
		7 0 0 0 0 0 0 0 0 0 0 0 0 0 0 0 0 0 0 18 
		8 0 0 0 0 0 0 0 0 0 0 0 0 0 20 0 0 0 0 0 
		9 0 0 0 0 0 0 0 0 0 0 0 16 0 0 0 0 12 19 0 
		10 0 0 0 0 0 0 0 0 0 0 0 0 23 0 0 0 16 18 0 
		11 0 0 0 0 0 0 0 0 0 0 0 0 0 0 13 19 0 0 0 
		12 0 0 0 0 0 0 0 0 0 0 0 0 0 0 0 0 0 0 0 
		13 0 0 0 0 0 0 0 0 0 0 0 0 0 0 0 0 17 0 0 
		14 0 0 0 0 0 0 0 0 0 0 0 0 0 0 0 0 0 0 0 
		15 0 0 0 0 0 0 0 0 0 0 0 0 0 0 0 0 0 19 0 
		16 0 0 0 0 0 0 0 0 0 0 0 0 0 0 0 0 0 0 0 
		17 0 0 0 0 0 0 0 0 0 0 0 0 0 0 0 0 0 0 0 
		18 0 0 0 0 0 0 0 0 0 0 0 0 0 0 0 0 0 0 0 
;
param bs:	 0 1 2 3 4 5 6 7 8 9 10 11 12 13 14 15 16 17 18 19 20 21 22 23 24 25 26 27 28 29 30 31 32 33 34 35 36 37 38 39 40 41 42 := 
		0 0 0 33 0 0 0 0 0 0 0 0 0 34 35 0 0 0 0 0 0 0 0 0 0 0 0 0 0 0 0 0 0 0 0 0 39 0 0 0 0 0 0 0 
		1 0 0 0 0 0 0 0 0 0 0 0 31 0 0 0 0 0 0 0 0 0 0 0 0 0 0 0 0 0 0 0 0 0 39 0 0 0 0 0 0 0 0 0 
		2 33 0 0 0 0 0 0 0 0 0 0 0 0 0 0 0 27 0 25 0 0 0 36 0 0 0 0 0 0 0 0 0 0 0 0 0 27 0 0 0 0 0 0 
		3 0 0 0 0 0 0 0 0 0 0 0 0 0 0 0 0 0 0 0 0 25 38 0 0 0 0 0 30 0 0 0 0 38 0 0 0 0 0 0 0 0 0 0 
		4 0 0 0 0 0 0 0 0 0 0 0 0 0 0 0 0 0 0 0 0 0 0 0 38 0 0 0 0 0 0 0 0 0 0 0 0 0 0 0 0 0 0 0 
		5 0 0 0 0 0 0 0 0 0 0 0 0 0 0 0 0 0 0 0 0 0 0 0 0 0 0 0 0 0 0 0 0 0 0 0 0 0 0 28 0 35 0 0 
		6 0 0 0 0 0 0 0 0 32 0 0 0 0 0 0 0 0 0 0 0 0 0 0 0 0 0 0 0 22 33 0 32 0 0 0 0 0 0 0 0 28 0 0 
		7 0 0 0 0 0 0 0 0 0 0 0 0 0 37 0 0 0 0 0 0 0 0 0 0 0 0 0 0 0 0 24 0 0 0 0 0 0 0 0 0 0 0 0 
		8 0 0 0 0 0 0 32 0 0 0 0 0 0 0 0 0 0 0 0 0 0 0 0 0 0 0 0 0 0 0 0 35 0 0 0 0 0 30 0 0 0 0 0 
		9 0 0 0 0 0 0 0 0 0 0 26 0 0 0 0 0 0 0 0 0 0 37 0 0 27 0 0 0 0 0 0 0 0 0 0 0 0 0 0 0 0 0 0 
		10 0 0 0 0 0 0 0 0 0 26 0 0 0 24 34 39 0 0 0 0 0 0 0 0 0 0 0 0 0 0 0 0 0 0 0 0 37 0 0 0 0 31 0 
		11 0 31 0 0 0 0 0 0 0 0 0 0 0 0 0 0 37 0 0 0 0 0 0 0 0 0 0 0 0 22 0 0 0 0 0 0 0 0 0 26 0 0 0 
		12 34 0 0 0 0 0 0 0 0 0 0 0 0 0 0 24 0 0 0 0 0 0 0 0 0 0 0 0 0 0 0 29 0 0 0 0 0 25 0 0 0 0 20 
		13 35 0 0 0 0 0 0 37 0 0 24 0 0 0 0 27 0 0 0 0 0 0 0 0 0 0 31 0 0 0 0 0 33 0 0 0 0 24 0 0 0 0 0 
		14 0 0 0 0 0 0 0 0 0 0 34 0 0 0 0 0 26 0 0 0 0 0 0 0 0 0 0 0 0 0 0 0 0 0 32 0 0 0 0 0 0 0 0 
		15 0 0 0 0 0 0 0 0 0 0 39 0 24 27 0 0 0 0 0 0 0 0 0 0 0 0 0 26 0 0 29 0 34 0 0 0 0 0 35 36 0 39 0 
		16 0 0 27 0 0 0 0 0 0 0 0 37 0 0 26 0 0 0 0 0 38 22 0 0 0 35 0 33 0 0 40 0 0 0 40 0 0 0 0 0 0 0 0 
		17 0 0 0 0 0 0 0 0 0 0 0 0 0 0 0 0 0 0 0 0 0 0 20 0 0 0 0 32 40 0 0 0 0 0 0 0 0 0 0 0 0 0 0 
		18 0 0 25 0 0 0 0 0 0 0 0 0 0 0 0 0 0 0 0 0 0 0 0 0 0 0 0 0 0 0 0 0 0 0 0 0 0 0 0 0 0 0 0 
		19 0 0 0 0 0 0 0 0 0 0 0 0 0 0 0 0 0 0 0 0 0 0 0 0 0 0 0 0 0 0 0 37 0 0 0 0 0 0 0 0 0 0 0 
		20 0 0 0 25 0 0 0 0 0 0 0 0 0 0 0 0 38 0 0 0 0 0 0 0 0 0 24 0 0 30 36 0 0 0 0 0 0 0 0 0 0 0 0 
		21 0 0 0 38 0 0 0 0 0 37 0 0 0 0 0 0 22 0 0 0 0 0 0 0 0 0 0 0 0 34 0 0 0 0 29 34 0 0 26 0 35 0 37 
		22 0 0 36 0 0 0 0 0 0 0 0 0 0 0 0 0 0 20 0 0 0 0 0 0 0 0 0 0 0 0 39 0 0 0 0 0 21 0 0 0 0 0 0 
		23 0 0 0 0 38 0 0 0 0 0 0 0 0 0 0 0 0 0 0 0 0 0 0 0 26 0 0 0 0 0 0 0 0 0 0 0 29 0 0 0 0 0 0 
		24 0 0 0 0 0 0 0 0 0 27 0 0 0 0 0 0 0 0 0 0 0 0 0 26 0 0 0 0 0 0 0 0 32 0 0 0 0 0 24 29 0 0 31 
		25 0 0 0 0 0 0 0 0 0 0 0 0 0 0 0 0 35 0 0 0 0 0 0 0 0 0 0 0 0 0 0 0 0 0 0 0 0 0 0 0 0 0 0 
		26 0 0 0 0 0 0 0 0 0 0 0 0 0 31 0 0 0 0 0 0 24 0 0 0 0 0 0 0 0 0 0 0 0 0 0 0 20 0 0 0 0 0 0 
		27 0 0 0 30 0 0 0 0 0 0 0 0 0 0 0 26 33 32 0 0 0 0 0 0 0 0 0 0 0 0 0 0 0 0 0 0 32 0 0 0 0 0 0 
		28 0 0 0 0 0 0 22 0 0 0 0 0 0 0 0 0 0 40 0 0 0 0 0 0 0 0 0 0 0 28 0 0 0 0 0 0 0 0 0 25 0 0 0 
		29 0 0 0 0 0 0 33 0 0 0 0 22 0 0 0 0 0 0 0 0 30 34 0 0 0 0 0 0 28 0 0 24 0 0 0 20 0 0 0 0 0 0 0 
		30 0 0 0 0 0 0 0 24 0 0 0 0 0 0 0 29 40 0 0 0 36 0 39 0 0 0 0 0 0 0 0 0 26 0 0 0 31 0 0 0 0 20 0 
		31 0 0 0 0 0 0 32 0 35 0 0 0 29 0 0 0 0 0 0 37 0 0 0 0 0 0 0 0 0 24 0 0 0 0 0 0 30 0 33 0 0 0 0 
		32 0 0 0 38 0 0 0 0 0 0 0 0 0 33 0 34 0 0 0 0 0 0 0 0 32 0 0 0 0 0 26 0 0 0 0 0 0 0 0 0 0 0 0 
		33 0 39 0 0 0 0 0 0 0 0 0 0 0 0 0 0 0 0 0 0 0 0 0 0 0 0 0 0 0 0 0 0 0 0 0 27 36 0 0 0 0 0 0 
		34 0 0 0 0 0 0 0 0 0 0 0 0 0 0 32 0 40 0 0 0 0 29 0 0 0 0 0 0 0 0 0 0 0 0 0 0 0 23 0 24 0 0 0 
		35 39 0 0 0 0 0 0 0 0 0 0 0 0 0 0 0 0 0 0 0 0 34 0 0 0 0 0 0 0 20 0 0 0 27 0 0 0 37 0 0 0 0 0 
		36 0 0 27 0 0 0 0 0 0 0 37 0 0 0 0 0 0 0 0 0 0 0 21 29 0 0 20 32 0 0 31 30 0 36 0 0 0 0 0 0 0 21 0 
		37 0 0 0 0 0 0 0 0 30 0 0 0 25 24 0 0 0 0 0 0 0 0 0 0 0 0 0 0 0 0 0 0 0 0 23 37 0 0 0 0 0 27 0 
		38 0 0 0 0 0 28 0 0 0 0 0 0 0 0 0 35 0 0 0 0 0 26 0 0 24 0 0 0 0 0 0 33 0 0 0 0 0 0 0 0 0 0 0 
		39 0 0 0 0 0 0 0 0 0 0 0 26 0 0 0 36 0 0 0 0 0 0 0 0 29 0 0 0 25 0 0 0 0 0 24 0 0 0 0 0 27 30 0 
		40 0 0 0 0 0 35 28 0 0 0 0 0 0 0 0 0 0 0 0 0 0 35 0 0 0 0 0 0 0 0 0 0 0 0 0 0 0 0 0 27 0 0 0 
		41 0 0 0 0 0 0 0 0 0 0 31 0 0 0 0 39 0 0 0 0 0 0 0 0 0 0 0 0 0 0 20 0 0 0 0 0 21 27 0 30 0 0 0 
		42 0 0 0 0 0 0 0 0 0 0 0 0 20 0 0 0 0 0 0 0 0 37 0 0 31 0 0 0 0 0 0 0 0 0 0 0 0 0 0 0 0 0 0 
;
